p cnf 10	36
1	2	3	0
-1	-2	-3	0
1	2	6	0
-1	-2	-6	0
1	2	9	0
-1	-2	-9	0
1	3	4	0
-1	-3	-4	0
1	3	8	0
-1	-3	-8	0
1	3	9	0
-1	-3	-9	0
1	6	8	0
-1	-6	-8	0
1	6	9	0
-1	-6	-9	0
1	8	9	0
-1	-8	-9	0
2	3	5	0
-2	-3	-5	0
2	3	9	0
-2	-3	-9	0
2	5	6	0
-2	-5	-6	0
2	6	9	0
-2	-6	-9	0
3	5	8	0
-3	-5	-8	0
3	8	9	0
-3	-8	-9	0
5	6	8	0
-5	-6	-8	0
5	7	8	0
-5	-7	-8	0
6	8	9	0
-6	-8	-9	0